NAME : 10_3_3_2_(36).dat
COMMENT : Henke, Speranza, Wäscher, 2015
TYPE : MCVRP
DIMENSION : 11
EDGE_WEIGHT_TYPE : DISTANCE_MATRIX
CAPACITY : 1000
VEHICLES : 2
PRODUCT TYPES : 3
COMPARTMENTS : 3
NODE_COORD_SECTION
1 50 50
2 37.5 73.55
3 83.22 28.08
4 47.41 98.88
5 23.46 37.56
6 31.9 53.18
7 8.31 92.71
8 50.85 1.08
9 53.33 93.04
10 60.25 36.43
11 10.92 66.69
DEMAND_SECTION
1 0 0 0
2 3 80 0
3 80 0 83
4 36 20 0
5 0 21 39
6 184 64 0
7 0 85 20
8 33 0 64
9 0 94 10
10 208 0 52
11 125 36 0
DEPOT_SECTION
1
EOF